words_hard_train/7327.qaiger
aag 91 16 0 1 75
2
4
12
14
20
24
28
32
42
50
54
64
80
96
112
128
182
6 2 4
8 3 5
10 7 9
16 12 15
18 17 15
22 18 21
26 23 24
30 26 28
34 30 32
36 11 35
38 10 34
40 37 39
44 43 12
46 42 13
48 45 47
52 48 50
56 52 54
58 57 47
60 13 14
62 61 17
66 63 65
68 62 64
70 67 69
72 59 70
74 73 69
76 19 20
78 77 23
82 78 81
84 79 80
86 83 85
88 75 86
90 89 85
92 22 25
94 93 27
98 95 97
100 94 96
102 99 101
104 91 102
106 105 101
108 27 29
110 109 31
114 111 113
116 110 112
118 115 117
120 107 118
122 121 117
124 31 33
126 125 35
130 127 129
132 126 128
134 131 133
136 123 134
138 137 133
140 40 139
142 41 138
144 141 143
146 74 87
148 147 89
150 58 71
152 151 73
154 149 153
156 49 55
158 156 51
160 159 57
162 90 103
164 163 105
166 161 165
168 106 119
170 169 121
172 166 171
174 122 135
176 175 137
178 172 177
180 154 178
182 145 181
i0 1 x1[7]
i1 2 y1[0]
i2 1 x1[1]
i3 1 x1[2]
i4 1 x1[3]
i5 1 x1[4]
i6 1 x1[5]
i7 1 x1[6]
i8 2 y1[6]
i9 2 y1[7]
i10 1 x1[0]
i11 2 y1[5]
i12 2 y1[4]
i13 2 y1[3]
i14 2 y1[2]
i15 2 y1[1]
o0 bv[0]
c
simplified
  >=
    add
      add
        14
        1 x1
      reverse
        2 y1
    1
