words_hard_train/7327.qaiger.qdimacs
p cnf 91 226
a 1 6 7 10 12 14 16 27 0
e 2 3 4 5 8 9 11 13 15 17 18 19 20 21 22 23 24 25 26 28 29 30 31 32 33 34 35 36 37 38 39 40 41 42 43 44 45 46 47 48 49 50 51 52 53 54 55 56 57 58 59 60 61 62 63 64 65 66 67 68 69 70 71 72 73 74 75 76 77 78 79 80 81 82 83 84 85 86 87 88 89 90 91 0
-1 -2 3 0
1 -3 0
2 -3 0
1 2 4 0
-1 -4 0
-2 -4 0
3 4 5 0
-3 -5 0
-4 -5 0
-6 7 8 0
6 -8 0
-7 -8 0
8 7 9 0
-8 -9 0
-7 -9 0
-9 10 11 0
9 -11 0
-10 -11 0
11 -12 13 0
-11 -13 0
12 -13 0
-13 -14 15 0
13 -15 0
14 -15 0
-15 -16 17 0
15 -17 0
16 -17 0
5 17 18 0
-5 -18 0
-17 -18 0
-5 -17 19 0
5 -19 0
17 -19 0
18 19 20 0
-18 -20 0
-19 -20 0
21 -6 22 0
-21 -22 0
6 -22 0
-21 6 23 0
21 -23 0
-6 -23 0
22 23 24 0
-22 -24 0
-23 -24 0
-24 -25 26 0
24 -26 0
25 -26 0
-26 -27 28 0
26 -28 0
27 -28 0
28 23 29 0
-28 -29 0
-23 -29 0
6 -7 30 0
-6 -30 0
7 -30 0
30 8 31 0
-30 -31 0
-8 -31 0
31 32 33 0
-31 -33 0
-32 -33 0
-31 -32 34 0
31 -34 0
32 -34 0
33 34 35 0
-33 -35 0
-34 -35 0
29 -35 36 0
-29 -36 0
35 -36 0
36 34 37 0
-36 -37 0
-34 -37 0
9 -10 38 0
-9 -38 0
10 -38 0
38 11 39 0
-38 -39 0
-11 -39 0
-39 40 41 0
39 -41 0
-40 -41 0
39 -40 42 0
-39 -42 0
40 -42 0
41 42 43 0
-41 -43 0
-42 -43 0
37 -43 44 0
-37 -44 0
43 -44 0
44 42 45 0
-44 -45 0
-42 -45 0
-11 12 46 0
11 -46 0
-12 -46 0
46 13 47 0
-46 -47 0
-13 -47 0
47 48 49 0
-47 -49 0
-48 -49 0
-47 -48 50 0
47 -50 0
48 -50 0
49 50 51 0
-49 -51 0
-50 -51 0
45 -51 52 0
-45 -52 0
51 -52 0
52 50 53 0
-52 -53 0
-50 -53 0
13 14 54 0
-13 -54 0
-14 -54 0
54 15 55 0
-54 -55 0
-15 -55 0
55 56 57 0
-55 -57 0
-56 -57 0
-55 -56 58 0
55 -58 0
56 -58 0
57 58 59 0
-57 -59 0
-58 -59 0
53 -59 60 0
-53 -60 0
59 -60 0
60 58 61 0
-60 -61 0
-58 -61 0
15 16 62 0
-15 -62 0
-16 -62 0
62 17 63 0
-62 -63 0
-17 -63 0
63 64 65 0
-63 -65 0
-64 -65 0
-63 -64 66 0
63 -66 0
64 -66 0
65 66 67 0
-65 -67 0
-66 -67 0
61 -67 68 0
-61 -68 0
67 -68 0
68 66 69 0
-68 -69 0
-66 -69 0
-20 69 70 0
20 -70 0
-69 -70 0
20 -69 71 0
-20 -71 0
69 -71 0
70 71 72 0
-70 -72 0
-71 -72 0
-37 43 73 0
37 -73 0
-43 -73 0
73 44 74 0
-73 -74 0
-44 -74 0
-29 35 75 0
29 -75 0
-35 -75 0
75 36 76 0
-75 -76 0
-36 -76 0
74 76 77 0
-74 -77 0
-76 -77 0
24 27 78 0
-24 -78 0
-27 -78 0
-78 25 79 0
78 -79 0
-25 -79 0
79 28 80 0
-79 -80 0
-28 -80 0
-45 51 81 0
45 -81 0
-51 -81 0
81 52 82 0
-81 -82 0
-52 -82 0
80 82 83 0
-80 -83 0
-82 -83 0
-53 59 84 0
53 -84 0
-59 -84 0
84 60 85 0
-84 -85 0
-60 -85 0
-83 85 86 0
83 -86 0
-85 -86 0
-61 67 87 0
61 -87 0
-67 -87 0
87 68 88 0
-87 -88 0
-68 -88 0
-86 88 89 0
86 -89 0
-88 -89 0
-77 -89 90 0
77 -90 0
89 -90 0
72 90 91 0
-72 -91 0
-90 -91 0
91 0
